180
1000
800
784
783
779
777
776
773
769
766
766
763
758
758
757
748
742
740
730
728
726
720
719
715
714
707
703
697
694
680
672
671
666
663
658
656
656
654
653
639
637
637
636
634
619
615
614
612
606
606
604
600
596
590
585
581
580
578
576
568
566
564
551
549
542
542
540
531
530
530
508
505
499
495
494
487
485
482
472
470
470
469
468
456
450
447
428
421
409
402
397
394
384
383
373
371
370
366
364
364
361
354
350
344
342
341
341
321
315
314
308
306
297
296
295
285
284
269
267
262
262
261
254
251
246
244
244
240
238
237
232
222
221
220
219
217
205
199
198
196
195
193
191
182
180
177
176
168
157
156
156
152
151
146
145
124
123
122
103
99
99
92
90
86
86
78
69
68
66
65
62
58
55
46
39
33
25
22
20
15
12
